15	53
0	3	17
0	4	2
0	6	9
0	7	99
0	11	48
0	12	42
1	5	63
1	7	49
1	8	15
1	11	85
1	12	93
2	3	90
2	4	59
2	5	75
2	6	87
2	7	1
2	8	1
2	9	4
3	6	70
3	7	53
3	8	90
3	9	49
3	10	8
3	11	45
3	12	24
3	14	89
4	5	59
4	8	57
4	9	81
4	10	56
4	11	2
4	12	57
4	13	32
5	6	79
5	9	3
6	9	26
6	12	17
7	12	40
7	13	74
7	14	17
8	9	11
8	10	10
9	11	59
9	12	47
9	13	82
9	14	54
10	11	65
10	12	68
10	13	50
10	14	73
11	13	100
12	13	61
13	14	20
